units real
boundary p p p

atom_style full
bond_style harmonic
angle_style harmonic
dihedral_style opls
special_bonds lj/coul 0.0 0.0 0.5

pair_style lj/cut/coul/long 9.0
kspace_style pppm 1.e-4

read_data data.pol

pair_coeff    1    1    0.129490     3.263000  # Ow Ow
pair_coeff    *   2*    0.000000     0.000000  # Ow Hw

# atom groups convenient for thermostats (see package documentation), etc.
group ATOMS type 1 2
group CORES type 1
group DRUDES type 3

#FU| this would NOT be needed in general
fix DRUDE all drude C N D

variable TK equal 300
variable TDK equal 1.0
variable PBAR equal 1.0

neighbor 2.0 bin

timestep 1.0

velocity ATOMS create ${TK} 12345
velocity ATOMS zero linear
velocity DRUDES create ${TDK} 12345

compute TATOM ATOMS temp
compute TDRDE DRUDES temp

dump TRJ all custom 100 dump.lammpstrj id type element xu yu zu fx fy fz
dump_modify TRJ sort 1 element O H X

fix NVT ATOMS rigid/nvt/small molecule temp ${TK} ${TK} 10

fix SCPF DRUDES scpf/cg 1.e-04 1.e-02 1000 1000
fix_modify SCPF printconv no

fix MOM ATOMS momentum 100 linear 1 1 1 rescale

thermo_style custom step cpu etotal ke pe ebond eangle evdwl ecoul elong press vol temp c_TATOM c_TDRDE
thermo 10

run 100000

write_data data.nvt.lmp
write_restart restart.nvt.lmp
